numNurses = 202;
hours = 76;
demand = [38 15 9 19 0 34 35 16 48 38 5 49 10 14 19 38 38 28 47 24 39 37 8 23 32 47 19 48 5 17 25 32 10 1 44 13 4 8 11 7 18 48 19 33 44 17 45 43 47 44 3 45 39 17 41 15 20 46 20 44 40 27 42 44 40 10 41 32 27 26 33 14 37 4 44 0];
minHours = 17;
maxHours = 24;
maxConsec = 16;
maxPresence = 43;